n_res = 4;
rc = [ 0, 0, 0, 0 ];
n_tasks = 30;
d = [ 9, 10, 9, 10, 7, 1, 4, 4, 4, 8, 9, 3, 2, 1, 3, 7, 7, 4, 6, 9, 9, 8, 8, 6, 10, 7, 6, 4, 1, 9 ];
rr = [| 0, 0, 0, 0, 0, 0, 0, 0, 0, 0, 0, 0, 0, 0, 0, 0, 0, 0, 0, 0, 0, 0, 0, 0, 0, 0, 0, 0, 0, 0
      | 0, 0, 0, 0, 0, 0, 0, 0, 0, 0, 0, 0, 0, 0, 0, 0, 0, 0, 0, 0, 0, 0, 0, 0, 0, 0, 0, 0, 0, 0
      | 0, 0, 0, 0, 0, 0, 0, 0, 0, 0, 0, 0, 0, 0, 0, 0, 0, 0, 0, 0, 0, 0, 0, 0, 0, 0, 0, 0, 0, 0
      | 0, 0, 0, 0, 0, 0, 0, 0, 0, 0, 0, 0, 0, 0, 0, 0, 0, 0, 0, 0, 0, 0, 0, 0, 0, 0, 0, 0, 0, 0 |];
suc = [ { 11, 12, 28 },
       { 5, 6 },
       { 4, 8 },
       { 26 },
       { 7, 18 },
       { 21 },
       { 9, 16, 20 },
       { 27 },
       { 10, 21 },
       { 15 },
       { 14, 23, 29 },
       { 13, 19, 22 },
       { 14, 25 },
       { 18 },
       { 17 },
       { 25 },
       { 24 },
       { 26 },
       { 27 },
       { 30 },
       { 23, 29 },
       { 29 },
       { 30 },
       { 25, 28 },
       { 26 },
       { 27 },
       { 30 },
       {  },
       {  },
       {  } ];
